7 100 500
0 47 5
1 1 19 20 8
2 97 35 14 16
3 23 79 5 45
4 77 87 11 8
5 3 9 22 6
6 5 27 25 31
7 41 53 2 75
8 51 87 18 16
9 67 73 10 39
10 89 45 26 11
11 71 99 14 70
12 11 1 22 16
13 85 85 9 16
14 57 11 11 57
15 57 85 18 15
16 71 33 24 57
17 61 13 15 8
18 39 15 23 67
19 13 59 16 58
20 43 99 14 61
21 87 73 8 15
22 11 37 5 73
23 21 11 12 23
24 77 81 8 59
25 3 63 16 66
26 47 95 12 54
27 53 75 15 36
28 73 55 9 44
29 81 71 2 60
30 89 75 10 36
31 11 9 2 1
32 27 37 3 30
33 95 59 20 79
34 63 63 3 18
35 37 21 13 35
36 33 47 25 62
37 23 63 23 3
38 13 55 8 21
39 47 93 16 77
40 45 43 9 11
41 83 7 14 14
42 69 91 4 77
43 13 11 13 12
44 37 15 7 73
45 53 59 16 53
46 97 83 18 58
47 75 31 16 2
